Route 1: 0 87 77 63 11 60 100 28 33 72 57 70 58 0
Route 2: 0 19 80 25 61 75 64 5 78 0
Route 3: 0 81 16 95 32 83 62 0
Route 4: 0 44 26 39 66 55 18 51 0
Route 5: 0 88 6 24 48 94 65 38 56 22 0
Route 6: 0 2 67 53 69 91 8 0
Route 7: 0 41 96 15 30 47 40 29 0
Route 8: 0 90 9 49 98 35 7 42 31 0
Route 9: 0 93 50 46 84 85 45 14 52 20 79 82 0
Route 10: 0 54 92 10 71 89 27 76 12 3 73 23 0
Route 11: 0 97 59 4 43 34 36 21 0
Route 12: 0 74 37 99 17 13 68 1 86 0
